NAME: xqg237
COMMENT: Tour length 1108.349833666498
TYPE: TOUR
DIMENSION: 131
TOUR_SECTION
0
1
2
3
4
47
48
49
50
9
10
42
12
45
44
56
15
54
55
14
13
43
5
6
27
17
18
19
20
34
33
29
32
11
16
53
63
51
52
62
21
31
38
37
36
35
46
68
69
70
71
72
65
61
25
26
23
22
67
66
60
64
59
57
58
7
8
24
41
28
39
40
30
73
111
125
124
79
80
81
93
112
113
78
95
96
92
94
77
76
75
127
89
90
91
120
119
118
86
88
87
100
107
99
98
97
117
116
115
114
102
84
85
101
126
130
129
103
104
105
106
121
122
123
110
109
108
128
82
83
74
-1
EOF